results/x-long/X-n106-k14.vrp_seed-47.vrp.sol
Route #1: 22 33
Route #2: 7 75 84 9 12 104 1
Route #3: 52 92 102 24 90 26 62
Route #4: 96 45 100 51 76 15 44 5
Route #5: 28 66 46 79 37 27 19 78
Route #6: 54 77 83 2 17 69 105 64 94 82
Route #7: 86 18 41 10 16 20 56
Route #8: 57 63 31 40 13 85 21 74
Route #9: 53 103 101 93 97 43 87 60
Route #10: 35 89 3 55 23 98 4 65 80 47
Route #11: 29 72 34 11 99 49 71
Route #12: 14 58 88 91 36 8 48 67
Route #13: 25 39 50 81 6 70 61
Route #14: 73 32 42 30 38 59 95 68
Cost 26370.000000